NAME : mEgtspf.pid13330.gtsp.161061476.tour
COMMENT : Length = 161061476
COMMENT : Found by LKH [Keld Helsgaun] Wed Apr  2 20:49:36 2025
TYPE : TOUR
DIMENSION : 90
TOUR_SECTION
1
14
11
12
13
8
21
22
19
20
79
80
81
82
41
42
39
40
10
4
63
64
65
66
18
15
16
17
30
27
28
29
61
62
59
60
90
87
88
89
9
56
57
58
55
33
34
31
32
54
51
52
53
5
6
35
36
37
38
7
70
67
68
69
85
86
83
84
49
50
47
48
71
72
73
74
25
26
23
24
3
77
78
75
76
2
46
43
44
45
-1
EOF
